p cnf 12 50 
-2 -12 -9 0
1 -5 -8 0
-4 8 -2 0
7 5 4 0
3 -6 5 0
6 -2 -7 0
2 9 -5 0
1 -10 4 0
-9 -7 10 0
4 10 -7 0
-9 -3 -2 0
6 4 -12 0
1 -10 -3 0
2 10 -11 0
-8 -9 10 0
10 -8 5 0
5 3 -6 0
11 10 -9 0
-3 -1 -10 0
-2 3 -1 0
11 1 -9 0
6 5 -3 0
1 -3 12 0
1 6 11 0
-2 9 1 0
8 10 -3 0
-8 -3 12 0
10 2 9 0
11 4 -9 0
1 -8 -4 0
6 10 8 0
-10 2 -6 0
12 -5 9 0
2 1 -6 0
-6 -9 -1 0
12 2 1 0
5 11 10 0
3 -2 4 0
1 -5 6 0
-3 -6 -12 0
4 -10 -11 0
3 -12 9 0
4 3 9 0
7 11 -3 0
11 9 -2 0
11 -9 -10 0
6 -11 -10 0
-6 2 -12 0
4 -10 11 0
-8 4 -9 0
